
Gurobi 10.0.1 (linux64, C++) logging started Thu Apr 27 15:59:34 2023

Set parameter LogFile to value "1.log"
Gurobi Optimizer version 10.0.1 build v10.0.1rc0 (linux64)

CPU model: Intel(R) Core(TM) i5-6200U CPU @ 2.30GHz, instruction set [SSE2|AVX|AVX2]
Thread count: 2 physical cores, 4 logical processors, using up to 4 threads

Optimize a model with 2 rows, 3 columns and 5 nonzeros
Model fingerprint: 0x98886187
Variable types: 0 continuous, 3 integer (3 binary)
Coefficient statistics:
  Matrix range     [1e+00, 3e+00]
  Objective range  [1e+00, 2e+00]
  Bounds range     [1e+00, 1e+00]
  RHS range        [1e+00, 4e+00]
Found heuristic solution: objective 2.0000000
Presolve removed 2 rows and 3 columns
Presolve time: 0.01s
Presolve: All rows and columns removed

Explored 0 nodes (0 simplex iterations) in 0.01 seconds (0.00 work units)
Thread count was 1 (of 4 available processors)

Solution count 2: 3 2 

Optimal solution found (tolerance 1.00e-04)
Best objective 3.000000000000e+00, best bound 3.000000000000e+00, gap 0.0000%

Gurobi 10.0.1 (linux64, C++) logging started Mon May  8 21:25:50 2023

Set parameter LogFile to value "1.log"

Gurobi 10.0.1 (linux64, C++) logging started Mon May  8 21:26:30 2023

Set parameter LogFile to value "1.log"

Gurobi 10.0.1 (linux64, C++) logging started Tue May  9 16:44:03 2023

Set parameter LogFile to value "1.log"
